L=18;
no=8;
njo=[9,7,8,8,9,8,9,7];
djo=[15,10,14,12,15,14,10,12];
trab=[6,18,2,2,6,3,2,6,4,18,2,6,2,2,3,3,6,6,2,6,2,2,3,3,6,3,4,4,12,3,3,6,3,3,3,2,2,2,12,3,6,12,6,6,12,3,4,2,6,2,4,12,12,2,3,3,6,2,3,12,12,12,3,12,2,18,3,6,6,6,2,3,3,12,2,6,18,6,6,4,2,12,3,6,2,6,3,2,3,3,2,2,2,6,6,2,3,6,3,6,4,12];
nprec=13;
prec=[| 2, 10,
      | 3, 13,
      | 5, 15,
      | 10, 17,
      | 12, 18,
      | 17, 25,
      | 24, 27,
      | 41, 48,
      | 45, 53,
      | 46, 55,
      | 51, 59,
      | 52, 62,
      | 56, 65 |];


%%%%%%%%%%%%%%%%%%%%%%%%%%%%%%%%%%%%%%%%%%%%%%%%%%%%%%%%%%%%%%%%%%%%%%
%  8
%
%  9   1   9  15  82
%  6  18   2   2   6   3   2   6   4  18   2   6   2   2   3 
%  1   1   1   0   0
%  1   2   2   0   1
%      2   1  10
%  1   3   3   0   1
%      2   4  13
%  1   4   4   0   0
%  1   5   5   0   1
%      2   6  15
%  1   6   6   0   0
%  1   7   7   0   0
%  1   8   8   0   0
%  1   9   9   0   0
%
%  7  10  16  10  39
%  3   6   6   2   6   2   2   3   3   6 
%  2   1  10   1   1
%      1   2   2
%      3   1  17
%  2   2  11   0   0
%  2   3  12   0   1
%      3   2  18
%  2   4  13   1   0
%      1   3   3
%  2   5  14   0   0
%  2   6  15   1   0
%      1   5   5
%  2   7  16   0   0
%
%  8  17  24  14  62
%  3   4   4  12   3   3   6   3   3   3   2   2   2  12 
%  3   1  17   1   1
%      2   1  10
%      4   1  25
%  3   2  18   1   0
%      2   3  12
%  3   3  19   0   0
%  3   4  20   0   0
%  3   5  21   0   0
%  3   6  22   0   0
%  3   7  23   0   0
%  3   8  24   0   1
%      4   3  27
%
%  8  25  32  12  66
%  3   6  12   6   6  12   3   4   2   6   2   4 
%  4   1  25   1   0
%      3   1  17
%  4   2  26   0   0
%  4   3  27   1   0
%      3   8  24
%  4   4  28   0   0
%  4   5  29   0   0
%  4   6  30   0   0
%  4   7  31   0   0
%  4   8  32   0   0
%
%  9  33  41  15 114
% 12  12   2   3   3   6   2   3  12  12  12   3  12   2  18 
%  5   1  33   0   0
%  5   2  34   0   0
%  5   3  35   0   0
%  5   4  36   0   0
%  5   5  37   0   0
%  5   6  38   0   0
%  5   7  39   0   0
%  5   8  40   0   0
%  5   9  41   0   1
%      6   7  48
%
%  8  42  49  14  83
%  3   6   6   6   2   3   3  12   2   6  18   6   6   4 
%  6   1  42   0   0
%  6   2  43   0   0
%  6   3  44   0   0
%  6   4  45   0   1
%      7   4  53
%  6   5  46   0   1
%      7   6  55
%  6   6  47   0   0
%  6   7  48   1   0
%      5   9  41
%  6   8  49   0   0
%
%  9  50  58  10  42
%  2  12   3   6   2   6   3   2   3   3 
%  7   1  50   0   0
%  7   2  51   0   1
%      8   1  59
%  7   3  52   0   1
%      8   4  62
%  7   4  53   1   0
%      6   4  45
%  7   5  54   0   0
%  7   6  55   1   0
%      6   5  46
%  7   7  56   0   1
%      8   7  65
%  7   8  57   0   0
%  7   9  58   0   0
%
%  7  59  65  12  54
%  2   2   2   6   6   2   3   6   3   6   4  12 
%  8   1  59   1   0
%      7   2  51
%  8   2  60   0   0
%  8   3  61   0   0
%  8   4  62   1   0
%      7   3  52
%  8   5  63   0   0
%  8   6  64   0   0
%  8   7  65   1   0
%      7   7  56
%
%230
